qbf_easy_train/easy_3718_SAT.qdimacs
p cnf 34 92
a 1 10 19 0
e 2 3 4 5 6 7 8 9 11 12 13 14 15 16 17 18 20 21 22 23 24 25 26 27 28 29 30 31 32 33 34 0
3 1 0
3 2 0
-1 -2 -3 0
-4 -5 -6 0
4 5 -6 0
-4 5 6 0
4 -5 6 0
1 -2 -7 0
-1 2 -7 0
1 2 7 0
-1 -2 7 0
9 -7 0
9 8 0
7 -8 -9 0
-10 -8 -11 0
10 8 -11 0
-10 8 11 0
10 -8 11 0
12 -9 0
12 -11 0
9 11 -12 0
-6 12 -13 0
6 -12 -13 0
-6 -12 13 0
6 12 13 0
-14 3 0
-14 13 0
-3 -13 14 0
16 4 0
16 15 0
-4 -15 -16 0
17 11 0
17 -7 0
-11 7 -17 0
18 -10 0
18 4 0
10 -4 -18 0
-19 18 0
-19 8 0
-18 -8 19 0
-17 -19 -20 0
17 19 -20 0
-17 19 20 0
17 -19 20 0
21 4 0
21 -7 0
-4 7 -21 0
22 20 0
22 -21 0
-20 21 -22 0
24 -9 0
24 -23 0
9 23 -24 0
-25 11 0
-25 24 0
-11 -24 25 0
-26 23 0
-26 23 0
-23 26 0
-27 1 0
-27 9 0
-1 -9 27 0
-28 -26 0
-28 27 0
26 -27 28 0
29 26 0
29 -8 0
-26 8 -29 0
-30 -28 0
-30 29 0
28 -29 30 0
31 25 0
31 -30 0
-25 30 -31 0
32 -22 0
32 31 0
22 -31 -32 0
-33 -16 0
-33 -32 0
16 32 33 0
34 14 0
34 33 0
-14 -33 -34 0
15 -8 27 -5 -11 20 0
5 30 8 -32 25 -2 0
20 16 -6 -27 10 17 0
18 -1 -32 0
-2 9 3 -8 0
12 20 21 0
-13 -15 -33 7 0
11 -31 -10 -22 17 0
34 0
