sat_easy_train/easy_3718_SAT.dimacs
p cnf 146 485
-3 1 0
-3 2 0
-1 -2 3 0
4 5 -6 0
-4 -5 -6 0
4 -5 6 0
-4 5 6 0
7 -3 0
7 -6 0
3 6 -7 0
9 8 0
9 -7 0
-8 7 -9 0
-11 -9 0
-11 10 0
9 -10 11 0
12 -7 0
12 11 0
7 -11 -12 0
-15 -13 0
-15 14 0
13 -14 15 0
-15 16 -17 0
15 -16 -17 0
-15 -16 17 0
15 16 17 0
18 6 0
18 5 0
-6 -5 -18 0
-18 -19 0
18 -19 0
-20 17 0
-20 -19 0
-17 19 20 0
21 -18 0
21 7 0
18 -7 -21 0
22 4 0
22 21 0
-4 -21 -22 0
23 20 0
23 22 0
-20 -22 -23 0
-24 -10 0
-24 -13 0
10 13 24 0
25 -23 0
25 24 0
23 -24 -25 0
12 -25 -26 0
-12 25 -26 0
12 25 26 0
-12 -25 26 0
7 -18 -27 0
-7 18 -27 0
7 18 27 0
-7 -18 27 0
-28 -19 0
-28 -27 0
19 27 28 0
29 16 0
29 13 0
-16 -13 -29 0
-30 -29 0
-30 4 0
29 -4 30 0
-31 -5 0
-31 -27 0
5 27 31 0
32 -30 0
32 31 0
30 -31 -32 0
5 -29 -33 0
-5 29 -33 0
5 29 33 0
-5 -29 33 0
34 -32 0
34 33 0
32 -33 -34 0
3 -34 -35 0
-3 34 -35 0
3 34 35 0
-3 -34 35 0
36 28 0
36 -35 0
-28 35 -36 0
-2 15 -37 0
2 -15 -37 0
-2 -15 37 0
2 15 37 0
-16 10 -38 0
16 -10 -38 0
-16 -10 38 0
16 10 38 0
-40 39 0
-40 -39 0
41 -10 0
41 -4 0
10 4 -41 0
-42 -40 0
-42 41 0
40 -41 42 0
43 -14 0
43 -42 0
14 42 -43 0
44 38 0
44 -43 0
-38 43 -44 0
-37 -44 -45 0
37 44 -45 0
-37 44 45 0
37 -44 45 0
36 45 -46 0
-36 -45 -46 0
36 -45 46 0
-36 45 46 0
-26 46 -47 0
26 -46 -47 0
-26 -46 47 0
26 46 47 0
-48 -10 0
-48 -5 0
10 5 48 0
48 41 -49 0
-48 -41 -49 0
48 -41 49 0
-48 41 49 0
50 39 0
50 1 0
-39 -1 -50 0
6 -29 -51 0
-6 29 -51 0
6 29 51 0
-6 -29 51 0
50 -51 -52 0
-50 51 -52 0
50 51 52 0
-50 -51 52 0
53 52 0
53 -9 0
-52 9 -53 0
-54 31 0
-54 -53 0
-31 53 54 0
56 -3 0
56 55 0
3 -55 -56 0
-57 50 0
-57 56 0
-50 -56 57 0
-58 -3 0
-58 -57 0
3 57 58 0
-59 -54 0
-59 -58 0
54 58 59 0
60 15 0
60 27 0
-15 -27 -60 0
61 -56 0
61 -60 0
56 60 -61 0
-62 -59 0
-62 61 0
59 -61 62 0
63 -49 0
63 62 0
49 -62 -63 0
3 -64 -65 0
-3 64 -65 0
3 64 65 0
-3 -64 65 0
-67 40 0
-67 -31 0
-40 31 67 0
68 -29 0
68 -67 0
29 67 -68 0
-69 55 0
-69 30 0
-55 -30 69 0
70 68 0
70 69 0
-68 -69 -70 0
71 -66 0
71 70 0
66 -70 -71 0
72 65 0
72 71 0
-65 -71 -72 0
73 -72 0
73 -51 0
72 51 -73 0
74 38 0
74 41 0
-38 -41 -74 0
-75 73 0
-75 74 0
-73 -74 75 0
-76 -63 0
-76 75 0
63 -75 76 0
77 -47 0
77 -76 0
47 76 -77 0
-79 -42 0
-79 -78 0
42 78 79 0
-2 27 -80 0
2 -27 -80 0
-2 -27 80 0
2 27 80 0
-81 -19 0
-81 80 0
19 -80 81 0
82 -79 0
82 81 0
79 -81 -82 0
83 -82 0
83 -50 0
82 50 -83 0
84 15 0
84 -1 0
-15 1 -84 0
83 -84 -85 0
-83 84 -85 0
83 84 85 0
-83 -84 85 0
86 9 0
86 10 0
-9 -10 -86 0
-87 86 0
-87 -4 0
-86 4 87 0
88 6 0
88 -6 0
89 -51 0
89 88 0
51 -88 -89 0
69 -89 -90 0
-69 89 -90 0
69 89 90 0
-69 -89 90 0
5 -1 -91 0
-5 1 -91 0
5 1 91 0
-5 -1 91 0
-92 37 0
-92 -91 0
-37 91 92 0
93 92 0
93 6 0
-92 -6 -93 0
90 93 -94 0
-90 -93 -94 0
90 -93 94 0
-90 93 94 0
-95 -87 0
-95 94 0
87 -94 95 0
96 -73 0
96 71 0
73 -71 -96 0
97 -8 0
97 16 0
8 -16 -97 0
98 -97 0
98 55 0
97 -55 -98 0
99 -98 0
99 97 0
98 -97 -99 0
99 42 -100 0
-99 -42 -100 0
99 -42 100 0
-99 42 100 0
101 -96 0
101 100 0
96 -100 -101 0
-102 -95 0
-102 -101 0
95 101 102 0
103 85 0
103 -102 0
-85 102 -103 0
104 77 0
104 -103 0
-77 103 -104 0
105 4 0
105 -99 0
-4 99 -105 0
106 74 0
106 -18 0
-74 18 -106 0
107 -105 0
107 -106 0
105 106 -107 0
-82 -1 -108 0
82 1 -108 0
-82 1 108 0
82 -1 108 0
-107 108 -109 0
107 -108 -109 0
-107 -108 109 0
107 108 109 0
-15 -97 -110 0
15 97 -110 0
-15 97 110 0
15 -97 110 0
-111 -109 0
-111 -110 0
109 110 111 0
-40 -5 -112 0
40 5 -112 0
-40 5 112 0
40 -5 112 0
-113 -111 0
-113 112 0
111 -112 113 0
114 -5 0
114 -14 0
5 14 -114 0
-114 -52 -115 0
114 52 -115 0
-114 52 115 0
114 -52 115 0
116 113 0
116 -115 0
-113 115 -116 0
-117 104 0
-117 116 0
-104 -116 117 0
-55 15 -118 0
55 -15 -118 0
-55 -15 118 0
55 15 118 0
13 -15 -119 0
-13 15 -119 0
13 15 119 0
-13 -15 119 0
-32 119 -120 0
32 -119 -120 0
-32 -119 120 0
32 119 120 0
-121 118 0
-121 -120 0
-118 120 121 0
122 -98 0
122 -2 0
98 2 -122 0
-123 122 0
-123 -38 0
-122 38 123 0
-123 -29 -124 0
123 29 -124 0
-123 29 124 0
123 -29 124 0
-125 42 0
-125 -98 0
-42 98 125 0
-124 -125 -126 0
124 125 -126 0
-124 125 126 0
124 -125 126 0
127 121 0
127 126 0
-121 -126 -127 0
128 34 -129 0
-128 -34 -129 0
128 -34 129 0
-128 34 129 0
130 -57 0
130 -129 0
57 129 -130 0
132 -98 0
132 -131 0
98 131 -132 0
-38 -79 -133 0
38 79 -133 0
-38 79 133 0
38 -79 133 0
-134 -132 0
-134 -133 0
132 133 134 0
-9 -19 -135 0
9 19 -135 0
-9 19 135 0
9 -19 135 0
-136 -135 0
-136 -3 0
135 3 136 0
-137 -81 0
-137 16 0
81 -16 137 0
-138 -136 0
-138 137 0
136 -137 138 0
-139 134 0
-139 -138 0
-134 138 139 0
140 9 0
140 86 0
-9 -86 -140 0
141 67 0
141 128 0
-67 -128 -141 0
-142 -140 0
-142 141 0
140 -141 142 0
143 139 0
143 -142 0
-139 142 -143 0
144 -130 0
144 -143 0
130 143 -144 0
-145 127 0
-145 -144 0
-127 144 145 0
146 -117 0
146 145 0
117 -145 -146 0
106 -120 -96 90 0
64 95 -10 66 0
-8 -72 -107 0
83 -48 23 -86 -94 0
-53 -127 -145 -47 56 -79 0
-83 122 -133 77 141 0
80 111 -20 -144 -83 58 0
129 77 133 0
46 40 -73 82 86 -121 0
4 122 -56 90 0
-12 -86 2 77 135 0
90 -125 -68 -85 18 0
137 84 0
-33 -133 -73 77 117 78 0
74 37 20 0
89 134 2 -7 -1 0
121 34 61 -68 -91 0
91 98 48 0
17 -53 71 -61 113 29 0
-78 -39 118 -28 96 -31 0
15 126 81 73 0
116 -128 0
-67 126 -66 -124 0
-44 -136 -85 30 123 0
3 -139 -70 19 -54 -104 0
37 12 -121 116 -133 66 0
-86 95 0
-102 32 0
-35 -94 0
79 41 -99 0
70 -130 0
-34 -139 -2 0
52 -136 -2 0
-32 132 -54 -91 15 0
-4 -29 83 17 -47 43 0
2 31 -42 0
-31 -141 54 77 0
125 -60 -82 121 -146 0
51 109 28 -88 123 -68 0
-115 94 -13 46 16 -73 0
19 6 12 120 131 -13 0
129 -38 64 -43 76 -138 0
-59 -77 0
41 -35 -1 -9 58 0
71 -115 0
7 73 95 134 -105 0
-87 132 26 94 29 0
-29 6 136 144 133 55 0
-41 -82 -134 99 0
-121 66 0
-59 106 -57 -101 -82 0
-86 -25 -116 93 -73 -38 0
56 -49 122 -8 -4 0
-119 -27 106 -31 140 57 0
55 -21 -139 0
18 -12 62 -42 -143 0
-20 -70 0
-12 -85 -53 91 -22 0
80 -39 71 0
-84 -14 74 52 37 0
28 15 -16 -141 0
42 94 -89 63 0
5 -66 0
146 0
